133290.23
115 114 113 13 15 17 138 38 39 40 41 42 164 163 63 64 65 66 67 188 190 192 191 189 88 89 90 91 92 213 214 215 216 217 218 219 221 223 222 220 97 96 95 94 93 193 71 72 194 195 196 197 198 199 200 77 76 75 74 73 175 176 177 178 179 180 78 79 80 81 82 205 204 203 202 201 98 99 100 101 102 224 0 1 2 3 4 5 6 7 9 8 107 106 105 104 103 206 207 208 209 210 211 109 111 10 11 12 112 110 108 212 87 86 85 84 83 187 62 61 186 185 184 183 182 181 57 56 55 54 53 157 158 159 160 161 58 60 59 162 37 36 35 34 33 137 136 135 134 133 132 131 130 129 28 29 30 31 32 156 155 154 153 152 151 150 27 26 25 24 23 126 128 127 125 124 123 122 121 120 119 118 116 117 18 19 20 21 22 144 145 146 147 148 149 48 49 50 51 52 174 173 172 171 170 69 70 68 167 165 166 168 169 47 46 45 44 43 143 142 141 140 139 16 14